0 84 
1 76 
2 78 
3 77 
4 80 
5 84 
6 80 
7 74 
8 73 
9 71 
10 71 
11 70 
12 71 
13 72 
14 68 
15 67 
16 66 
17 66 
18 66 
19 65 
20 66 
21 61 
22 57 
23 58 
24 56 
25 52 
26 49 
27 48 
28 44 
29 45 
30 47 
31 48 
32 46 
33 46 
34 38 
35 36 
36 36 
37 36 
38 35 
39 35 
40 32 
41 29 
42 27 
43 27 
44 27 
45 27 
46 24 
47 23 
48 24 
49 22 
50 21 
51 20 
52 19 
53 14 
54 13 
55 12 
56 10 
57 7 
58 5 
59 6 
60 4 
61 3 
62 1 
63 0 
64 0 

